100
100
3000 3000 3000 3000 3000 3000 3000 3000 3000 3000 3000 3000 3000 3000 3000 3000 3000 3000 3000 3000 3000 3000 3000 3000 3000 3000 3000 3000 3000 3000 3000 3000 3000 3000 3000 3000 3000 3000 3000 3000 3000 3000 3000 3000 3000 3000 3000 3000 3000 3000 3000 3000 3000 3000 3000 3000 3000 3000 3000 3000 3000 3000 3000 3000 3000 3000 3000 3000 3000 3000 3000 3000 3000 3000 3000 3000 3000 3000 3000 3000 3000 3000 3000 3000 3000 3000 3000 3000 3000 3000 3000 3000 3000 3000 3000 3000 3000 3000 3000 3000
0 19 3
0 31 0
0 63 3
0 65 0
0 72 2
0 78 3
0 80 2
0 82 0
0 88 2
0 93 1
1 3 1
1 11 4
1 25 0
1 34 4
1 35 3
1 50 3
1 53 4
1 57 0
1 67 1
1 98 4
2 5 4
2 23 1
2 25 4
2 38 4
2 43 3
2 46 3
2 60 0
2 84 1
2 90 0
2 97 4
3 4 0
3 15 3
3 27 4
3 35 4
3 36 0
3 42 1
3 52 2
3 60 2
3 75 0
3 87 2
4 4 2
4 7 0
4 12 0
4 16 4
4 29 0
4 30 1
4 36 2
4 63 4
4 83 0
4 89 0
5 21 4
5 28 4
5 31 4
5 36 3
5 39 2
5 45 2
5 59 3
5 85 4
5 87 1
5 93 1
6 12 1
6 20 2
6 29 2
6 32 3
6 63 1
6 74 4
6 75 1
6 79 2
6 83 0
6 88 4
7 5 3
7 7 2
7 19 2
7 21 4
7 34 0
7 41 2
7 43 2
7 52 2
7 53 3
7 67 1
8 0 1
8 1 4
8 11 1
8 17 3
8 20 2
8 56 1
8 58 0
8 60 0
8 98 3
8 99 0
9 6 2
9 17 2
9 31 4
9 44 0
9 61 4
9 67 2
9 74 1
9 75 0
9 92 2
9 96 4
10 2 3
10 6 2
10 30 0
10 39 1
10 63 4
10 66 2
10 70 3
10 72 4
10 77 3
10 92 3
11 2 0
11 16 1
11 20 0
11 21 1
11 39 2
11 54 1
11 62 3
11 74 3
11 81 0
11 92 1
12 4 3
12 14 3
12 30 4
12 48 2
12 70 1
12 71 0
12 75 0
12 93 0
12 96 3
12 97 0
13 3 3
13 17 0
13 19 1
13 23 3
13 32 4
13 35 2
13 50 1
13 54 2
13 80 3
13 99 0
14 0 4
14 20 3
14 24 1
14 38 2
14 40 2
14 60 3
14 62 1
14 64 1
14 78 2
14 98 3
15 8 0
15 43 0
15 49 3
15 52 4
15 56 4
15 82 3
15 85 3
15 88 4
15 89 0
15 94 3
16 2 3
16 11 4
16 23 3
16 54 4
16 59 1
16 61 2
16 64 1
16 83 2
16 84 0
16 87 1
17 20 3
17 27 3
17 32 1
17 33 4
17 44 0
17 50 0
17 62 3
17 71 2
17 86 1
17 90 0
18 4 0
18 6 0
18 12 1
18 16 4
18 43 0
18 52 0
18 57 0
18 94 0
18 96 2
18 98 4
19 16 0
19 17 4
19 27 1
19 41 1
19 42 3
19 46 1
19 51 2
19 57 3
19 60 2
19 89 3
20 26 2
20 34 4
20 44 2
20 69 0
20 70 1
20 73 0
20 87 0
20 88 4
20 92 0
20 95 0
21 6 2
21 21 1
21 33 4
21 53 0
21 58 3
21 61 4
21 66 1
21 87 1
21 88 2
21 96 4
22 5 4
22 8 3
22 13 3
22 28 4
22 43 0
22 54 1
22 74 1
22 76 4
22 77 1
22 80 2
23 5 1
23 21 4
23 33 0
23 35 4
23 44 1
23 56 1
23 63 2
23 65 0
23 82 1
23 86 1
24 8 1
24 10 3
24 17 0
24 22 0
24 26 1
24 30 4
24 80 0
24 94 1
24 95 2
24 99 0
25 10 2
25 21 4
25 24 0
25 34 4
25 56 0
25 59 4
25 62 4
25 70 3
25 90 2
25 92 1
26 5 1
26 18 1
26 32 1
26 35 0
26 40 2
26 43 0
26 57 0
26 82 4
26 91 0
26 98 4
27 2 1
27 22 2
27 24 3
27 26 3
27 45 0
27 52 0
27 63 4
27 68 1
27 87 2
27 97 3
28 11 2
28 12 0
28 41 1
28 57 4
28 68 2
28 74 4
28 81 3
28 82 4
28 85 4
28 91 3
29 0 3
29 10 2
29 19 3
29 24 1
29 27 0
29 28 4
29 34 0
29 54 3
29 70 1
29 86 3
30 10 2
30 18 3
30 24 4
30 25 3
30 30 1
30 36 3
30 48 1
30 67 4
30 76 1
30 87 2
31 7 2
31 25 1
31 39 4
31 44 0
31 57 1
31 84 3
31 85 4
31 88 2
31 93 3
31 95 0
32 2 4
32 16 4
32 27 2
32 28 3
32 37 0
32 46 3
32 57 4
32 66 0
32 71 3
32 74 2
33 0 1
33 22 4
33 25 1
33 30 3
33 36 2
33 39 4
33 58 3
33 63 3
33 80 4
33 85 4
34 2 4
34 5 1
34 29 3
34 33 4
34 39 4
34 43 2
34 67 3
34 70 0
34 76 0
34 89 4
35 4 4
35 8 1
35 11 4
35 12 0
35 18 4
35 28 4
35 45 4
35 77 3
35 80 0
35 99 0
36 15 3
36 17 1
36 27 0
36 28 3
36 51 1
36 53 3
36 63 2
36 68 2
36 75 1
36 90 2
37 10 0
37 28 2
37 29 3
37 60 0
37 61 1
37 62 0
37 63 3
37 82 2
37 86 0
37 90 1
38 11 3
38 17 0
38 18 0
38 21 4
38 46 4
38 74 0
38 78 3
38 81 2
38 89 0
38 95 0
39 9 0
39 28 4
39 30 3
39 42 4
39 59 2
39 68 2
39 72 0
39 80 2
39 89 3
39 97 1
40 16 2
40 17 1
40 18 4
40 20 3
40 24 1
40 59 3
40 66 2
40 69 1
40 70 1
40 76 4
41 3 1
41 6 1
41 7 3
41 45 4
41 50 3
41 52 2
41 59 2
41 62 0
41 98 0
41 99 4
42 7 3
42 13 3
42 18 2
42 41 4
42 48 1
42 61 2
42 64 1
42 77 3
42 85 2
42 91 3
43 21 2
43 33 3
43 48 4
43 64 4
43 66 1
43 70 0
43 84 3
43 85 0
43 92 0
43 95 3
44 1 3
44 24 1
44 29 4
44 35 1
44 45 0
44 51 1
44 52 0
44 76 2
44 94 2
44 95 0
45 1 1
45 8 4
45 9 0
45 12 2
45 23 1
45 25 3
45 29 4
45 42 1
45 50 3
45 65 2
46 6 1
46 11 1
46 26 2
46 32 1
46 34 0
46 39 4
46 40 2
46 76 3
46 91 4
46 93 2
47 20 1
47 41 0
47 46 4
47 51 4
47 52 4
47 71 1
47 77 2
47 90 0
47 93 2
47 95 2
48 14 4
48 16 3
48 22 0
48 37 0
48 45 2
48 54 3
48 76 3
48 78 0
48 84 2
48 94 4
49 1 0
49 3 4
49 4 4
49 13 4
49 27 3
49 35 1
49 60 2
49 81 3
49 85 2
49 90 0
50 0 2
50 1 0
50 4 4
50 6 1
50 11 2
50 18 3
50 19 0
50 54 4
50 87 0
50 95 1
51 1 2
51 30 3
51 34 0
51 49 2
51 52 3
51 57 0
51 60 2
51 64 0
51 76 1
51 97 1
52 6 4
52 8 4
52 31 3
52 42 0
52 52 0
52 68 4
52 70 4
52 71 3
52 80 3
52 82 2
53 16 2
53 20 2
53 37 4
53 38 3
53 44 3
53 45 2
53 67 4
53 72 2
53 78 2
53 94 1
54 0 3
54 1 0
54 14 3
54 43 1
54 50 3
54 53 4
54 65 0
54 82 4
54 94 1
54 99 1
55 24 2
55 37 4
55 44 1
55 48 3
55 52 3
55 65 0
55 68 0
55 80 1
55 82 3
55 83 3
56 2 4
56 6 2
56 11 1
56 16 3
56 28 1
56 36 3
56 48 4
56 64 0
56 77 0
56 92 3
57 1 0
57 4 2
57 22 0
57 33 1
57 40 0
57 42 1
57 51 4
57 63 1
57 66 4
57 69 0
58 9 4
58 15 3
58 25 2
58 47 2
58 59 0
58 73 2
58 79 1
58 81 3
58 83 3
58 87 4
59 1 4
59 5 3
59 21 3
59 28 2
59 37 4
59 61 0
59 76 0
59 80 1
59 85 3
59 86 3
60 4 2
60 35 2
60 39 4
60 45 0
60 54 4
60 58 3
60 61 0
60 66 4
60 93 4
60 99 3
61 12 1
61 13 3
61 27 0
61 41 3
61 44 0
61 63 0
61 65 3
61 76 2
61 81 1
61 95 0
62 13 2
62 26 1
62 28 2
62 38 0
62 53 0
62 54 4
62 61 1
62 69 4
62 70 1
62 90 1
63 10 2
63 27 3
63 40 3
63 46 3
63 48 1
63 51 2
63 72 3
63 82 4
63 83 2
63 88 4
64 4 4
64 7 1
64 8 3
64 9 0
64 39 3
64 45 2
64 47 1
64 51 3
64 82 3
64 93 0
65 27 3
65 40 0
65 41 0
65 49 0
65 76 3
65 78 2
65 83 2
65 85 0
65 92 2
65 93 4
66 15 2
66 17 2
66 32 0
66 65 3
66 80 4
66 82 3
66 90 0
66 92 3
66 95 4
66 96 4
67 5 4
67 19 4
67 30 2
67 33 2
67 47 3
67 51 2
67 59 4
67 69 1
67 71 1
67 75 1
68 32 2
68 43 2
68 48 0
68 51 1
68 53 0
68 54 4
68 59 2
68 65 0
68 78 4
68 86 4
69 3 4
69 29 1
69 31 2
69 36 0
69 45 0
69 57 2
69 62 2
69 78 2
69 90 0
69 92 3
70 7 1
70 31 3
70 37 4
70 43 2
70 54 0
70 63 4
70 74 4
70 81 3
70 82 2
70 98 2
71 0 0
71 1 2
71 27 0
71 42 2
71 47 3
71 55 1
71 68 3
71 74 4
71 78 4
71 87 2
72 1 3
72 8 4
72 24 1
72 27 0
72 42 2
72 54 3
72 56 4
72 73 2
72 76 2
72 93 0
73 1 4
73 4 0
73 17 1
73 19 2
73 26 0
73 27 0
73 84 1
73 88 1
73 93 1
73 97 0
74 1 0
74 4 4
74 10 4
74 26 1
74 45 0
74 48 3
74 55 3
74 75 1
74 78 0
74 89 0
75 11 3
75 17 4
75 19 0
75 25 0
75 34 4
75 35 3
75 52 4
75 56 4
75 78 4
75 86 2
76 1 0
76 20 4
76 24 2
76 34 1
76 40 4
76 42 1
76 54 0
76 63 3
76 69 3
76 97 1
77 2 1
77 12 4
77 13 2
77 25 4
77 68 2
77 72 3
77 83 4
77 88 2
77 93 4
77 94 4
78 4 1
78 18 1
78 25 2
78 39 3
78 45 3
78 48 1
78 67 4
78 72 0
78 78 4
78 90 3
79 29 1
79 43 2
79 45 0
79 47 3
79 66 4
79 69 1
79 79 1
79 91 3
79 93 0
79 94 0
80 10 2
80 36 3
80 65 2
80 71 4
80 75 2
80 76 1
80 83 3
80 86 4
80 88 3
80 99 4
81 14 2
81 24 1
81 60 1
81 66 1
81 71 4
81 77 1
81 87 2
81 92 2
81 95 4
81 98 3
82 4 4
82 14 3
82 35 0
82 36 4
82 60 1
82 65 0
82 66 0
82 67 4
82 92 4
82 93 2
83 12 0
83 39 4
83 40 3
83 54 1
83 73 1
83 76 2
83 77 2
83 78 1
83 85 4
83 88 0
84 0 1
84 8 4
84 20 2
84 34 0
84 35 1
84 36 3
84 51 3
84 54 1
84 70 2
84 80 3
85 11 1
85 15 4
85 32 2
85 36 0
85 37 1
85 42 2
85 60 3
85 75 2
85 92 3
85 98 0
86 11 2
86 14 1
86 24 1
86 39 4
86 42 3
86 43 3
86 67 2
86 86 3
86 88 4
86 90 1
87 6 4
87 8 4
87 15 1
87 17 0
87 29 2
87 33 1
87 39 1
87 61 4
87 79 1
87 97 4
88 2 3
88 8 1
88 17 0
88 28 4
88 31 0
88 43 3
88 47 3
88 61 4
88 82 4
88 83 4
89 13 2
89 18 1
89 19 1
89 26 0
89 46 0
89 62 2
89 71 3
89 79 1
89 86 1
89 89 0
90 14 3
90 18 1
90 25 3
90 53 4
90 54 3
90 58 2
90 72 3
90 79 0
90 80 0
90 87 4
91 13 2
91 16 0
91 22 0
91 35 0
91 42 0
91 50 2
91 83 3
91 84 0
91 92 0
91 93 4
92 9 1
92 23 1
92 24 1
92 34 4
92 44 0
92 46 1
92 56 1
92 63 2
92 87 4
92 95 4
93 7 3
93 9 1
93 15 4
93 16 3
93 26 0
93 32 1
93 41 0
93 73 3
93 81 0
93 82 3
94 17 3
94 28 0
94 33 0
94 43 2
94 55 3
94 61 4
94 65 2
94 68 0
94 83 4
94 93 2
95 6 2
95 11 4
95 21 3
95 22 0
95 28 3
95 42 4
95 57 0
95 87 2
95 89 2
95 95 1
96 2 1
96 27 4
96 32 3
96 35 1
96 49 2
96 53 2
96 64 2
96 65 2
96 66 0
96 91 0
97 2 0
97 6 2
97 10 4
97 18 1
97 31 1
97 32 0
97 42 2
97 45 4
97 47 1
97 65 2
98 9 4
98 31 4
98 33 3
98 40 1
98 42 3
98 43 0
98 45 0
98 49 4
98 68 2
98 81 4
99 4 0
99 11 4
99 21 4
99 49 1
99 52 1
99 53 1
99 54 3
99 90 4
99 93 2
99 99 2
